p tw 546 46411 275 
1 291 
1 307 
1 323 
1 339 
1 355 
1 371 
1 387 
1 403 
1 419 
1 435 
1 451 
1 467 
1 483 
1 499 
1 515 
1 531 
2 283 
2 299 
2 315 
2 331 
2 347 
2 363 
2 379 
2 395 
2 411 
2 427 
2 443 
2 459 
2 475 
2 491 
2 507 
2 523 
2 531 
3 281 
3 297 
3 313 
3 329 
3 345 
3 361 
3 377 
3 393 
3 409 
3 425 
3 441 
3 457 
3 473 
3 489 
3 505 
3 521 
3 531 
4 289 
4 305 
4 321 
4 337 
4 353 
4 369 
4 385 
4 401 
4 417 
4 433 
4 449 
4 465 
4 481 
4 497 
4 513 
4 529 
4 531 
5 279 
5 295 
5 311 
5 327 
5 343 
5 359 
5 375 
5 391 
5 407 
5 423 
5 439 
5 455 
5 471 
5 487 
5 503 
5 519 
5 531 
6 277 
6 293 
6 309 
6 325 
6 341 
6 357 
6 373 
6 389 
6 405 
6 421 
6 437 
6 453 
6 469 
6 485 
6 501 
6 517 
6 531 
7 276 
7 292 
7 308 
7 324 
7 340 
7 356 
7 372 
7 388 
7 404 
7 420 
7 436 
7 452 
7 468 
7 484 
7 500 
7 516 
7 531 
8 287 
8 303 
8 319 
8 335 
8 351 
8 367 
8 383 
8 399 
8 415 
8 431 
8 447 
8 463 
8 479 
8 495 
8 511 
8 527 
8 531 
9 278 
9 294 
9 310 
9 326 
9 342 
9 358 
9 374 
9 390 
9 406 
9 422 
9 438 
9 454 
9 470 
9 486 
9 502 
9 518 
9 531 
10 288 
10 304 
10 320 
10 336 
10 352 
10 368 
10 384 
10 400 
10 416 
10 432 
10 448 
10 464 
10 480 
10 496 
10 512 
10 528 
10 531 
11 285 
11 301 
11 317 
11 333 
11 349 
11 365 
11 381 
11 397 
11 413 
11 429 
11 445 
11 461 
11 477 
11 493 
11 509 
11 525 
11 531 
12 280 
12 296 
12 312 
12 328 
12 344 
12 360 
12 376 
12 392 
12 408 
12 424 
12 440 
12 456 
12 472 
12 488 
12 504 
12 520 
12 531 
13 282 
13 298 
13 314 
13 330 
13 346 
13 362 
13 378 
13 394 
13 410 
13 426 
13 442 
13 458 
13 474 
13 490 
13 506 
13 522 
13 531 
14 290 
14 306 
14 322 
14 338 
14 354 
14 370 
14 386 
14 402 
14 418 
14 434 
14 450 
14 466 
14 482 
14 498 
14 514 
14 530 
14 531 
15 286 
15 302 
15 318 
15 334 
15 350 
15 366 
15 382 
15 398 
15 414 
15 430 
15 446 
15 462 
15 478 
15 494 
15 510 
15 526 
15 531 
16 284 
16 300 
16 316 
16 332 
16 348 
16 364 
16 380 
16 396 
16 412 
16 428 
16 444 
16 460 
16 476 
16 492 
16 508 
16 524 
16 531 
17 275 
17 292 
17 309 
17 326 
17 343 
17 360 
17 377 
17 394 
17 411 
17 428 
17 445 
17 462 
17 479 
17 496 
17 513 
17 530 
17 539 
18 283 
18 300 
18 317 
18 334 
18 351 
18 368 
18 385 
18 402 
18 403 
18 420 
18 437 
18 454 
18 471 
18 488 
18 505 
18 522 
18 539 
19 281 
19 298 
19 311 
19 328 
19 341 
19 358 
19 371 
19 388 
19 417 
19 434 
19 447 
19 464 
19 477 
19 494 
19 507 
19 524 
19 539 
20 289 
20 306 
20 319 
20 336 
20 349 
20 366 
20 379 
20 396 
20 409 
20 426 
20 439 
20 456 
20 469 
20 486 
20 499 
20 516 
20 539 
21 279 
21 296 
21 313 
21 330 
21 339 
21 356 
21 373 
21 390 
21 415 
21 432 
21 449 
21 466 
21 475 
21 492 
21 509 
21 526 
21 539 
22 277 
22 294 
22 307 
22 324 
22 345 
22 362 
22 375 
22 392 
22 413 
22 430 
22 443 
22 460 
22 481 
22 498 
22 511 
22 528 
22 539 
23 276 
23 291 
23 310 
23 325 
23 344 
23 359 
23 378 
23 393 
23 412 
23 427 
23 446 
23 461 
23 480 
23 495 
23 514 
23 529 
23 539 
24 287 
24 304 
24 321 
24 338 
24 347 
24 364 
24 381 
24 398 
24 407 
24 424 
24 441 
24 458 
24 467 
24 484 
24 501 
24 518 
24 539 
25 278 
25 293 
25 308 
25 323 
25 346 
25 361 
25 376 
25 391 
25 414 
25 429 
25 444 
25 459 
25 482 
25 497 
25 512 
25 527 
25 539 
26 288 
26 303 
26 322 
26 337 
26 348 
26 363 
26 382 
26 397 
26 408 
26 423 
26 442 
26 457 
26 468 
26 483 
26 502 
26 517 
26 539 
27 285 
27 302 
27 315 
27 332 
27 353 
27 370 
27 383 
27 400 
27 405 
27 422 
27 435 
27 452 
27 473 
27 490 
27 503 
27 520 
27 539 
28 280 
28 295 
28 314 
28 329 
28 340 
28 355 
28 374 
28 389 
28 416 
28 431 
28 450 
28 465 
28 476 
28 491 
28 510 
28 525 
28 539 
29 282 
29 297 
29 312 
29 327 
29 342 
29 357 
29 372 
29 387 
29 418 
29 433 
29 448 
29 463 
29 478 
29 493 
29 508 
29 523 
29 539 
30 290 
30 305 
30 320 
30 335 
30 350 
30 365 
30 380 
30 395 
30 410 
30 425 
30 440 
30 455 
30 470 
30 485 
30 500 
30 515 
30 539 
31 286 
31 301 
31 316 
31 331 
31 354 
31 369 
31 384 
31 399 
31 406 
31 421 
31 436 
31 451 
31 474 
31 489 
31 504 
31 519 
31 539 
32 284 
32 299 
32 318 
32 333 
32 352 
32 367 
32 386 
32 401 
32 404 
32 419 
32 438 
32 453 
32 472 
32 487 
32 506 
32 521 
32 539 
33 275 
33 301 
33 320 
33 330 
33 342 
33 364 
33 385 
33 391 
33 409 
33 431 
33 446 
33 452 
33 472 
33 498 
33 507 
33 517 
33 537 
34 283 
34 293 
34 312 
34 338 
34 350 
34 356 
34 377 
34 399 
34 417 
34 423 
34 438 
34 460 
34 480 
34 490 
34 499 
34 525 
34 537 
35 281 
35 303 
35 318 
35 324 
35 344 
35 370 
35 379 
35 389 
35 403 
35 429 
35 448 
35 458 
35 470 
35 492 
35 513 
35 519 
35 537 
36 289 
36 295 
36 310 
36 332 
36 352 
36 362 
36 371 
36 397 
36 411 
36 421 
36 440 
36 466 
36 478 
36 484 
36 505 
36 527 
36 537 
37 279 
37 305 
37 316 
37 326 
37 346 
37 368 
37 381 
37 387 
37 405 
37 427 
37 450 
37 456 
37 468 
37 494 
37 511 
37 521 
37 537 
38 277 
38 299 
38 322 
38 328 
38 340 
38 366 
38 383 
38 393 
38 407 
38 433 
38 444 
38 454 
38 474 
38 496 
38 509 
38 515 
38 537 
39 276 
39 302 
39 319 
39 329 
39 341 
39 363 
39 386 
39 392 
39 410 
39 432 
39 445 
39 451 
39 471 
39 497 
39 508 
39 518 
39 537 
40 287 
40 297 
40 308 
40 334 
40 354 
40 360 
40 373 
40 395 
40 413 
40 419 
40 442 
40 464 
40 476 
40 486 
40 503 
40 529 
40 537 
41 278 
41 300 
41 321 
41 327 
41 339 
41 365 
41 384 
41 394 
41 408 
41 434 
41 443 
41 453 
41 473 
41 495 
41 510 
41 516 
41 537 
42 288 
42 298 
42 307 
42 333 
42 353 
42 359 
42 374 
42 396 
42 414 
42 420 
42 441 
42 463 
42 475 
42 485 
42 504 
42 530 
42 537 
43 285 
43 291 
43 314 
43 336 
43 348 
43 358 
43 375 
43 401 
43 415 
43 425 
43 436 
43 462 
43 482 
43 488 
43 501 
43 523 
43 537 
44 280 
44 306 
44 315 
44 325 
44 345 
44 367 
44 382 
44 388 
44 406 
44 428 
44 449 
44 455 
44 467 
44 493 
44 512 
44 522 
44 537 
45 282 
45 304 
45 317 
45 323 
45 343 
45 369 
45 380 
45 390 
45 404 
45 430 
45 447 
45 457 
45 469 
45 491 
45 514 
45 520 
45 537 
46 290 
46 296 
46 309 
46 331 
46 351 
46 361 
46 372 
46 398 
46 412 
46 422 
46 439 
46 465 
46 477 
46 483 
46 506 
46 528 
46 537 
47 286 
47 292 
47 313 
47 335 
47 347 
47 357 
47 376 
47 402 
47 416 
47 426 
47 435 
47 461 
47 481 
47 487 
47 502 
47 524 
47 537 
48 284 
48 294 
48 311 
48 337 
48 349 
48 355 
48 378 
48 400 
48 418 
48 424 
48 437 
48 459 
48 479 
48 489 
48 500 
48 526 
48 537 
49 275 
49 302 
49 322 
49 327 
49 346 
49 367 
49 379 
49 390 
49 417 
49 424 
49 436 
49 461 
49 476 
49 485 
49 505 
49 528 
49 545 
50 283 
50 294 
50 314 
50 335 
50 354 
50 359 
50 371 
50 398 
50 409 
50 432 
50 444 
50 453 
50 468 
50 493 
50 513 
50 520 
50 545 
51 281 
51 304 
51 316 
51 325 
51 340 
51 365 
51 385 
51 392 
51 411 
51 422 
51 442 
51 463 
51 482 
51 487 
51 499 
51 526 
51 545 
52 289 
52 296 
52 308 
52 333 
52 348 
52 357 
52 377 
52 400 
52 403 
52 430 
52 450 
52 455 
52 474 
52 495 
52 507 
52 518 
52 545 
53 279 
53 306 
53 318 
53 323 
53 342 
53 363 
53 383 
53 394 
53 413 
53 420 
53 440 
53 465 
53 480 
53 489 
53 501 
53 524 
53 545 
54 277 
54 300 
54 320 
54 329 
54 344 
54 369 
54 381 
54 388 
54 415 
54 426 
54 438 
54 459 
54 478 
54 483 
54 503 
54 530 
54 545 
55 276 
55 301 
55 321 
55 328 
55 345 
55 368 
55 380 
55 389 
55 418 
55 423 
55 435 
55 462 
55 475 
55 486 
55 506 
55 527 
55 545 
56 287 
56 298 
56 310 
56 331 
56 350 
56 355 
56 375 
56 402 
56 405 
56 428 
56 448 
56 457 
56 472 
56 497 
56 509 
56 516 
56 545 
57 278 
57 299 
57 319 
57 330 
57 343 
57 370 
57 382 
57 387 
57 416 
57 425 
57 437 
57 460 
57 477 
57 484 
57 504 
57 529 
57 545 
58 288 
58 297 
58 309 
58 332 
58 349 
58 356 
58 376 
58 401 
58 406 
58 427 
58 447 
58 458 
58 471 
58 498 
58 510 
58 515 
58 545 
59 285 
59 292 
59 312 
59 337 
59 352 
59 361 
59 373 
59 396 
59 407 
59 434 
59 446 
59 451 
59 470 
59 491 
59 511 
59 522 
59 545 
60 280 
60 305 
60 317 
60 324 
60 341 
60 364 
60 384 
60 393 
60 414 
60 419 
60 439 
60 466 
60 479 
60 490 
60 502 
60 523 
60 545 
61 282 
61 303 
61 315 
61 326 
61 339 
61 366 
61 386 
61 391 
61 412 
61 421 
61 441 
61 464 
61 481 
61 488 
61 500 
61 525 
61 545 
62 290 
62 295 
62 307 
62 334 
62 347 
62 358 
62 378 
62 399 
62 404 
62 429 
62 449 
62 456 
62 473 
62 496 
62 508 
62 517 
62 545 
63 286 
63 291 
63 311 
63 338 
63 351 
63 362 
63 374 
63 395 
63 408 
63 433 
63 445 
63 452 
63 469 
63 492 
63 512 
63 521 
63 545 
64 284 
64 293 
64 313 
64 336 
64 353 
64 360 
64 372 
64 397 
64 410 
64 431 
64 443 
64 454 
64 467 
64 494 
64 514 
64 519 
64 545 
65 275 
65 303 
65 308 
65 336 
65 341 
65 369 
65 374 
65 402 
65 407 
65 427 
65 440 
65 460 
65 473 
65 493 
65 506 
65 526 
65 535 
66 283 
66 295 
66 316 
66 328 
66 349 
66 361 
66 382 
66 394 
66 415 
66 419 
66 448 
66 452 
66 481 
66 485 
66 514 
66 518 
66 535 
67 281 
67 301 
67 314 
67 334 
67 343 
67 363 
67 376 
67 396 
67 405 
67 433 
67 438 
67 466 
67 467 
67 495 
67 500 
67 528 
67 535 
68 289 
68 293 
68 322 
68 326 
68 351 
68 355 
68 384 
68 388 
68 413 
68 425 
68 446 
68 458 
68 475 
68 487 
68 508 
68 520 
68 535 
69 279 
69 299 
69 312 
69 332 
69 345 
69 365 
69 378 
69 398 
69 403 
69 431 
69 436 
69 464 
69 469 
69 497 
69 502 
69 530 
69 535 
70 277 
70 305 
70 310 
70 338 
70 339 
70 367 
70 372 
70 400 
70 409 
70 429 
70 442 
70 462 
70 471 
70 491 
70 504 
70 524 
70 535 
71 276 
71 304 
71 307 
71 335 
71 342 
71 370 
71 373 
71 401 
71 408 
71 428 
71 439 
71 459 
71 474 
71 494 
71 505 
71 525 
71 535 
72 287 
72 291 
72 320 
72 324 
72 353 
72 357 
72 386 
72 390 
72 411 
72 423 
72 444 
72 456 
72 477 
72 489 
72 510 
72 522 
72 535 
73 278 
73 306 
73 309 
73 337 
73 340 
73 368 
73 371 
73 399 
73 410 
73 430 
73 441 
73 461 
73 472 
73 492 
73 503 
73 523 
73 535 
74 288 
74 292 
74 319 
74 323 
74 354 
74 358 
74 385 
74 389 
74 412 
74 424 
74 443 
74 455 
74 478 
74 490 
74 509 
74 521 
74 535 
75 285 
75 297 
75 318 
75 330 
75 347 
75 359 
75 380 
75 392 
75 417 
75 421 
75 450 
75 454 
75 479 
75 483 
75 512 
75 516 
75 535 
76 280 
76 300 
76 311 
76 331 
76 346 
76 366 
76 377 
76 397 
76 404 
76 432 
76 435 
76 463 
76 470 
76 498 
76 501 
76 529 
76 535 
77 282 
77 302 
77 313 
77 333 
77 344 
77 364 
77 375 
77 395 
77 406 
77 434 
77 437 
77 465 
77 468 
77 496 
77 499 
77 527 
77 535 
78 290 
78 294 
78 321 
78 325 
78 352 
78 356 
78 383 
78 387 
78 414 
78 426 
78 445 
78 457 
78 476 
78 488 
78 507 
78 519 
78 535 
79 286 
79 298 
79 317 
79 329 
79 348 
79 360 
79 379 
79 391 
79 418 
79 422 
79 449 
79 453 
79 480 
79 484 
79 511 
79 515 
79 535 
80 284 
80 296 
80 315 
80 327 
80 350 
80 362 
80 381 
80 393 
80 416 
80 420 
80 447 
80 451 
80 482 
80 486 
80 513 
80 517 
80 535 
81 275 
81 297 
81 319 
81 333 
81 340 
81 362 
81 384 
81 398 
81 405 
81 423 
81 449 
81 459 
81 470 
81 488 
81 514 
81 524 
81 533 
82 283 
82 305 
82 311 
82 325 
82 348 
82 370 
82 376 
82 390 
82 413 
82 431 
82 441 
82 451 
82 478 
82 496 
82 506 
82 516 
82 533 
83 281 
83 291 
83 317 
83 335 
83 346 
83 356 
83 382 
83 400 
83 407 
83 421 
83 443 
83 465 
83 472 
83 486 
83 508 
83 530 
83 533 
84 289 
84 299 
84 309 
84 327 
84 354 
84 364 
84 374 
84 392 
84 415 
84 429 
84 435 
84 457 
84 480 
84 494 
84 500 
84 522 
84 533 
85 279 
85 293 
85 315 
85 337 
85 344 
85 358 
85 380 
85 402 
85 409 
85 419 
85 445 
85 463 
85 474 
85 484 
85 510 
85 528 
85 533 
86 277 
86 295 
86 321 
86 331 
86 342 
86 360 
86 386 
86 396 
86 403 
86 425 
86 447 
86 461 
86 468 
86 490 
86 512 
86 526 
86 533 
87 276 
87 298 
87 320 
87 334 
87 339 
87 361 
87 383 
87 397 
87 406 
87 424 
87 450 
87 460 
87 469 
87 487 
87 513 
87 523 
87 533 
88 287 
88 301 
88 307 
88 329 
88 352 
88 366 
88 372 
88 394 
88 417 
88 427 
88 437 
88 455 
88 482 
88 492 
88 502 
88 520 
88 533 
89 278 
89 296 
89 322 
89 332 
89 341 
89 359 
89 385 
89 395 
89 404 
89 426 
89 448 
89 462 
89 467 
89 489 
89 511 
89 525 
89 533 
90 288 
90 302 
90 308 
90 330 
90 351 
90 365 
90 371 
90 393 
90 418 
90 428 
90 438 
90 456 
90 481 
90 491 
90 501 
90 519 
90 533 
91 285 
91 303 
91 313 
91 323 
91 350 
91 368 
91 378 
91 388 
91 411 
91 433 
91 439 
91 453 
91 476 
91 498 
91 504 
91 518 
91 533 
92 280 
92 294 
92 316 
92 338 
92 343 
92 357 
92 379 
92 401 
92 410 
92 420 
92 446 
92 464 
92 473 
92 483 
92 509 
92 527 
92 533 
93 282 
93 292 
93 318 
93 336 
93 345 
93 355 
93 381 
93 399 
93 408 
93 422 
93 444 
93 466 
93 471 
93 485 
93 507 
93 529 
93 533 
94 290 
94 300 
94 310 
94 328 
94 353 
94 363 
94 373 
94 391 
94 416 
94 430 
94 436 
94 458 
94 479 
94 493 
94 499 
94 521 
94 533 
95 286 
95 304 
95 314 
95 324 
95 349 
95 367 
95 377 
95 387 
95 412 
95 434 
95 440 
95 454 
95 475 
95 497 
95 503 
95 517 
95 533 
96 284 
96 306 
96 312 
96 326 
96 347 
96 369 
96 375 
96 389 
96 414 
96 432 
96 442 
96 452 
96 477 
96 495 
96 505 
96 515 
96 533 
97 275 
97 294 
97 313 
97 328 
97 351 
97 370 
97 381 
97 396 
97 404 
97 421 
97 442 
97 455 
97 480 
97 497 
97 510 
97 523 
97 532 
98 283 
98 302 
98 321 
98 336 
98 343 
98 362 
98 373 
98 388 
98 412 
98 429 
98 450 
98 463 
98 472 
98 489 
98 502 
98 515 
98 532 
99 281 
99 296 
99 307 
99 326 
99 349 
99 364 
99 383 
99 402 
99 410 
99 423 
99 436 
99 453 
99 478 
99 491 
99 512 
99 529 
99 532 
100 289 
100 304 
100 315 
100 334 
100 341 
100 356 
100 375 
100 394 
100 418 
100 431 
100 444 
100 461 
100 470 
100 483 
100 504 
100 521 
100 532 
101 279 
101 298 
101 309 
101 324 
101 347 
101 366 
101 385 
101 400 
101 408 
101 425 
101 438 
101 451 
101 476 
101 493 
101 514 
101 527 
101 532 
102 277 
102 292 
102 311 
102 330 
102 353 
102 368 
102 379 
102 398 
102 406 
102 419 
102 440 
102 457 
102 482 
102 495 
102 508 
102 525 
102 532 
103 276 
103 293 
103 314 
103 327 
103 352 
103 369 
103 382 
103 395 
103 403 
103 422 
103 441 
103 456 
103 479 
103 498 
103 509 
103 524 
103 532 
104 287 
104 306 
104 317 
104 332 
104 339 
104 358 
104 377 
104 392 
104 416 
104 433 
104 446 
104 459 
104 468 
104 485 
104 506 
104 519 
104 532 
105 278 
105 291 
105 312 
105 329 
105 354 
105 367 
105 380 
105 397 
105 405 
105 420 
105 439 
105 458 
105 481 
105 496 
105 507 
105 526 
105 532 
106 288 
106 305 
106 318 
106 331 
106 340 
106 357 
106 378 
106 391 
106 415 
106 434 
106 445 
106 460 
106 467 
106 486 
106 505 
106 520 
106 532 
107 285 
107 300 
107 319 
107 338 
107 345 
107 360 
107 371 
107 390 
107 414 
107 427 
107 448 
107 465 
107 474 
107 487 
107 500 
107 517 
107 532 
108 280 
108 297 
108 310 
108 323 
108 348 
108 365 
108 386 
108 399 
108 407 
108 426 
108 437 
108 452 
108 475 
108 494 
108 513 
108 528 
108 532 
109 282 
109 295 
109 308 
109 325 
109 350 
109 363 
109 384 
109 401 
109 409 
109 424 
109 435 
109 454 
109 477 
109 492 
109 511 
109 530 
109 532 
110 290 
110 303 
110 316 
110 333 
110 342 
110 355 
110 376 
110 393 
110 417 
110 432 
110 443 
110 462 
110 469 
110 484 
110 503 
110 522 
110 532 
111 286 
111 299 
111 320 
111 337 
111 346 
111 359 
111 372 
111 389 
111 413 
111 428 
111 447 
111 466 
111 473 
111 488 
111 499 
111 518 
111 532 
112 284 
112 301 
112 322 
112 335 
112 344 
112 361 
112 374 
112 387 
112 411 
112 430 
112 449 
112 464 
112 471 
112 490 
112 501 
112 516 
112 532 
113 275 
113 304 
113 310 
113 337 
113 345 
113 366 
113 376 
113 395 
113 415 
113 420 
113 450 
113 453 
113 477 
113 490 
113 508 
113 519 
113 543 
114 283 
114 296 
114 318 
114 329 
114 353 
114 358 
114 384 
114 387 
114 407 
114 428 
114 442 
114 461 
114 469 
114 498 
114 500 
114 527 
114 543 
115 281 
115 302 
115 312 
115 331 
115 339 
115 368 
115 374 
115 401 
115 413 
115 426 
115 444 
115 455 
115 479 
115 484 
115 514 
115 517 
115 543 
116 289 
116 294 
116 320 
116 323 
116 347 
116 360 
116 382 
116 393 
116 405 
116 434 
116 436 
116 463 
116 471 
116 492 
116 506 
116 525 
116 543 
117 279 
117 300 
117 314 
117 333 
117 341 
117 370 
117 372 
117 399 
117 411 
117 424 
117 446 
117 457 
117 481 
117 486 
117 512 
117 515 
117 543 
118 277 
118 306 
118 308 
118 335 
118 343 
118 364 
118 378 
118 397 
118 417 
118 422 
118 448 
118 451 
118 475 
118 488 
118 510 
118 521 
118 543 
119 276 
119 303 
119 309 
119 338 
119 346 
119 365 
119 375 
119 396 
119 416 
119 419 
119 449 
119 454 
119 478 
119 489 
119 507 
119 520 
119 543 
120 287 
120 292 
120 322 
120 325 
120 349 
120 362 
120 380 
120 391 
120 403 
120 432 
120 438 
120 465 
120 473 
120 494 
120 504 
120 523 
120 543 
121 278 
121 305 
121 307 
121 336 
121 344 
121 363 
121 377 
121 398 
121 418 
121 421 
121 447 
121 452 
121 476 
121 487 
121 509 
121 522 
121 543 
122 288 
122 291 
122 321 
122 326 
122 350 
122 361 
122 379 
122 392 
122 404 
122 431 
122 437 
122 466 
122 474 
122 493 
122 503 
122 524 
122 543 
123 285 
123 298 
123 316 
123 327 
123 351 
123 356 
123 386 
123 389 
123 409 
123 430 
123 440 
123 459 
123 467 
123 496 
123 502 
123 529 
123 543 
124 280 
124 299 
124 313 
124 334 
124 342 
124 369 
124 371 
124 400 
124 412 
124 423 
124 445 
124 458 
124 482 
124 485 
124 511 
124 516 
124 543 
125 282 
125 301 
125 311 
125 332 
125 340 
125 367 
125 373 
125 402 
125 414 
125 425 
125 443 
125 456 
125 480 
125 483 
125 513 
125 518 
125 543 
126 290 
126 293 
126 319 
126 324 
126 348 
126 359 
126 381 
126 394 
126 406 
126 433 
126 435 
126 464 
126 472 
126 491 
126 505 
126 526 
126 543 
127 286 
127 297 
127 315 
127 328 
127 352 
127 355 
127 385 
127 390 
127 410 
127 429 
127 439 
127 460 
127 468 
127 495 
127 501 
127 530 
127 543 
128 284 
128 295 
128 317 
128 330 
128 354 
128 357 
128 383 
128 388 
128 408 
128 427 
128 441 
128 462 
128 470 
128 497 
128 499 
128 528 
128 543 
129 275 
129 296 
129 317 
129 338 
129 352 
129 363 
129 378 
129 389 
129 406 
129 425 
129 444 
129 463 
129 481 
129 494 
129 503 
129 516 
129 534 
130 283 
130 304 
130 309 
130 330 
130 344 
130 355 
130 386 
130 397 
130 414 
130 433 
130 436 
130 455 
130 473 
130 486 
130 511 
130 524 
130 534 
131 281 
131 294 
131 319 
131 332 
131 350 
131 369 
131 372 
131 391 
131 408 
131 419 
131 450 
131 461 
131 475 
131 496 
131 501 
131 522 
131 534 
132 289 
132 302 
132 311 
132 324 
132 342 
132 361 
132 380 
132 399 
132 416 
132 427 
132 442 
132 453 
132 467 
132 488 
132 509 
132 530 
132 534 
133 279 
133 292 
133 321 
133 334 
133 348 
133 367 
133 374 
133 393 
133 410 
133 421 
133 448 
133 459 
133 477 
133 498 
133 499 
133 520 
133 534 
134 277 
134 298 
134 315 
134 336 
134 354 
134 365 
134 376 
134 387 
134 404 
134 423 
134 446 
134 465 
134 479 
134 492 
134 505 
134 518 
134 534 
135 276 
135 295 
135 318 
135 337 
135 351 
135 364 
135 377 
135 390 
135 405 
135 426 
135 443 
135 464 
135 482 
135 493 
135 504 
135 515 
135 534 
136 287 
136 300 
136 313 
136 326 
136 340 
136 359 
136 382 
136 401 
136 418 
136 429 
136 440 
136 451 
136 469 
136 490 
136 507 
136 528 
136 534 
137 278 
137 297 
137 316 
137 335 
137 353 
137 366 
137 375 
137 388 
137 403 
137 424 
137 445 
137 466 
137 480 
137 491 
137 506 
137 517 
137 534 
138 288 
138 299 
138 314 
138 325 
138 339 
138 360 
138 381 
138 402 
138 417 
138 430 
138 439 
138 452 
138 470 
138 489 
138 508 
138 527 
138 534 
139 285 
139 306 
139 307 
139 328 
139 346 
139 357 
139 384 
139 395 
139 412 
139 431 
139 438 
139 457 
139 471 
139 484 
139 513 
139 526 
139 534 
140 280 
140 291 
140 322 
140 333 
140 347 
140 368 
140 373 
140 394 
140 409 
140 422 
140 447 
140 460 
140 478 
140 497 
140 500 
140 519 
140 534 
141 282 
141 293 
141 320 
141 331 
141 349 
141 370 
141 371 
141 392 
141 407 
141 420 
141 449 
141 462 
141 476 
141 495 
141 502 
141 521 
141 534 
142 290 
142 301 
142 312 
142 323 
142 341 
142 362 
142 379 
142 400 
142 415 
142 428 
142 441 
142 454 
142 468 
142 487 
142 510 
142 529 
142 534 
143 286 
143 305 
143 308 
143 327 
143 345 
143 358 
143 383 
143 396 
143 411 
143 432 
143 437 
143 458 
143 472 
143 483 
143 514 
143 525 
143 534 
144 284 
144 303 
144 310 
144 329 
144 343 
144 356 
144 385 
144 398 
144 413 
144 434 
144 435 
144 456 
144 474 
144 485 
144 512 
144 523 
144 534 
145 275 
145 305 
145 312 
145 334 
145 349 
145 359 
145 386 
145 388 
145 416 
145 422 
145 443 
145 457 
145 474 
145 492 
145 501 
145 527 
145 544 
146 283 
146 297 
146 320 
146 326 
146 341 
146 367 
146 378 
146 396 
146 408 
146 430 
146 435 
146 465 
146 482 
146 484 
146 509 
146 519 
146 544 
147 281 
147 299 
147 310 
147 336 
147 351 
147 357 
147 380 
147 394 
147 414 
147 424 
147 449 
147 451 
147 468 
147 498 
147 503 
147 525 
147 544 
148 289 
148 291 
148 318 
148 328 
148 343 
148 365 
148 372 
148 402 
148 406 
148 432 
148 441 
148 459 
148 476 
148 490 
148 511 
148 517 
148 544 
149 279 
149 301 
149 308 
149 338 
149 353 
149 355 
149 382 
149 392 
149 412 
149 426 
149 447 
149 453 
149 470 
149 496 
149 505 
149 523 
149 544 
150 277 
150 303 
150 314 
150 332 
150 347 
150 361 
150 384 
150 390 
150 418 
150 420 
150 445 
150 455 
150 472 
150 494 
150 499 
150 529 
150 544 
151 276 
151 306 
151 311 
151 333 
151 350 
151 360 
151 385 
151 387 
151 415 
151 421 
151 444 
151 458 
151 473 
151 491 
151 502 
151 528 
151 544 
152 287 
152 293 
152 316 
152 330 
152 345 
152 363 
152 374 
152 400 
152 404 
152 434 
152 439 
152 461 
152 478 
152 488 
152 513 
152 515 
152 544 
153 278 
153 304 
153 313 
153 331 
153 348 
153 362 
153 383 
153 389 
153 417 
153 419 
153 446 
153 456 
153 471 
153 493 
153 500 
153 530 
153 544 
154 288 
154 294 
154 315 
154 329 
154 346 
154 364 
154 373 
154 399 
154 403 
154 433 
154 440 
154 462 
154 477 
154 487 
154 514 
154 516 
154 544 
155 285 
155 295 
155 322 
155 324 
155 339 
155 369 
155 376 
155 398 
155 410 
155 428 
155 437 
155 463 
155 480 
155 486 
155 507 
155 521 
155 544 
156 280 
156 302 
156 307 
156 337 
156 354 
156 356 
156 381 
156 391 
156 411 
156 425 
156 448 
156 454 
156 469 
156 495 
156 506 
156 524 
156 544 
157 282 
157 300 
157 309 
157 335 
157 352 
157 358 
157 379 
157 393 
157 413 
157 423 
157 450 
157 452 
157 467 
157 497 
157 504 
157 526 
157 544 
158 290 
158 292 
158 317 
158 327 
158 344 
158 366 
158 371 
158 401 
158 405 
158 431 
158 442 
158 460 
158 475 
158 489 
158 512 
158 518 
158 544 
159 286 
159 296 
159 321 
159 323 
159 340 
159 370 
159 375 
159 397 
159 409 
159 427 
159 438 
159 464 
159 479 
159 485 
159 508 
159 522 
159 544 
160 284 
160 298 
160 319 
160 325 
160 342 
160 368 
160 377 
160 395 
160 407 
160 429 
160 436 
160 466 
160 481 
160 483 
160 510 
160 520 
160 544 
161 275 
161 298 
161 321 
161 332 
161 344 
161 357 
161 382 
161 399 
161 413 
161 432 
161 439 
161 454 
161 482 
161 491 
161 500 
161 521 
161 541 
162 283 
162 306 
162 313 
162 324 
162 352 
162 365 
162 374 
162 391 
162 405 
162 424 
162 447 
162 462 
162 474 
162 483 
162 508 
162 529 
162 541 
163 281 
163 292 
163 315 
163 338 
163 342 
163 359 
163 384 
163 397 
163 415 
163 430 
163 437 
163 456 
163 476 
163 497 
163 506 
163 515 
163 541 
164 289 
164 300 
164 307 
164 330 
164 350 
164 367 
164 376 
164 389 
164 407 
164 422 
164 445 
164 464 
164 468 
164 489 
164 514 
164 523 
164 541 
165 279 
165 294 
165 317 
165 336 
165 340 
165 361 
165 386 
165 395 
165 417 
165 428 
165 435 
165 458 
165 478 
165 495 
165 504 
165 517 
165 541 
166 277 
166 296 
166 319 
166 334 
166 346 
166 355 
166 380 
166 401 
166 411 
166 434 
166 441 
166 452 
166 480 
166 493 
166 502 
166 519 
166 541 
167 276 
167 297 
167 322 
167 331 
167 343 
167 358 
167 381 
167 400 
167 414 
167 431 
167 440 
167 453 
167 481 
167 492 
167 499 
167 522 
167 541 
168 287 
168 302 
168 309 
168 328 
168 348 
168 369 
168 378 
168 387 
168 409 
168 420 
168 443 
168 466 
168 470 
168 487 
168 512 
168 525 
168 541 
169 278 
169 295 
169 320 
169 333 
169 345 
169 356 
169 379 
169 402 
169 412 
169 433 
169 442 
169 451 
169 479 
169 494 
169 501 
169 520 
169 541 
170 288 
170 301 
170 310 
170 327 
170 347 
170 370 
170 377 
170 388 
170 410 
170 419 
170 444 
170 465 
170 469 
170 488 
170 511 
170 526 
170 541 
171 285 
171 304 
171 311 
171 326 
171 354 
171 363 
171 372 
171 393 
171 403 
171 426 
171 449 
171 460 
171 472 
171 485 
171 510 
171 527 
171 541 
172 280 
172 293 
172 318 
172 335 
172 339 
172 362 
172 385 
172 396 
172 418 
172 427 
172 436 
172 457 
172 477 
172 496 
172 503 
172 518 
172 541 
173 282 
173 291 
173 316 
173 337 
173 341 
173 360 
173 383 
173 398 
173 416 
173 429 
173 438 
173 455 
173 475 
173 498 
173 505 
173 516 
173 541 
174 290 
174 299 
174 308 
174 329 
174 349 
174 368 
174 375 
174 390 
174 408 
174 421 
174 446 
174 463 
174 467 
174 490 
174 513 
174 524 
174 541 
175 286 
175 303 
175 312 
175 325 
175 353 
175 364 
175 371 
175 394 
175 404 
175 425 
175 450 
175 459 
175 471 
175 486 
175 509 
175 528 
175 541 
176 284 
176 305 
176 314 
176 323 
176 351 
176 366 
176 373 
176 392 
176 406 
176 423 
176 448 
176 461 
176 473 
176 484 
176 507 
176 530 
176 541 
177 275 
177 306 
177 314 
177 331 
177 353 
177 356 
177 380 
177 393 
177 408 
177 429 
177 437 
177 464 
177 478 
177 487 
177 511 
177 518 
177 536 
178 283 
178 298 
178 322 
178 323 
178 345 
178 364 
178 372 
178 401 
178 416 
178 421 
178 445 
178 456 
178 470 
178 495 
178 503 
178 526 
178 536 
179 281 
179 300 
179 308 
179 337 
179 347 
179 362 
179 386 
179 387 
179 406 
179 431 
179 439 
179 462 
179 480 
179 485 
179 509 
179 520 
179 536 
180 289 
180 292 
180 316 
180 329 
180 339 
180 370 
180 378 
180 395 
180 414 
180 423 
180 447 
180 454 
180 472 
180 493 
180 501 
180 528 
180 536 
181 279 
181 302 
181 310 
181 335 
181 349 
181 360 
181 384 
181 389 
181 404 
181 433 
181 441 
181 460 
181 482 
181 483 
181 507 
181 522 
181 536 
182 277 
182 304 
182 312 
182 333 
182 351 
182 358 
182 382 
182 391 
182 410 
182 427 
182 435 
182 466 
182 476 
182 489 
182 513 
182 516 
182 536 
183 276 
183 305 
183 313 
183 332 
183 354 
183 355 
183 379 
183 394 
183 407 
183 430 
183 438 
183 463 
183 477 
183 488 
183 512 
183 517 
183 536 
184 287 
184 294 
184 318 
184 327 
184 341 
184 368 
184 376 
184 397 
184 412 
184 425 
184 449 
184 452 
184 474 
184 491 
184 499 
184 530 
184 536 
185 278 
185 303 
185 311 
185 334 
185 352 
185 357 
185 381 
185 392 
185 409 
185 428 
185 436 
185 465 
185 475 
185 490 
185 514 
185 515 
185 536 
186 288 
186 293 
186 317 
186 328 
186 342 
186 367 
186 375 
186 398 
186 411 
186 426 
186 450 
186 451 
186 473 
186 492 
186 500 
186 529 
186 536 
187 285 
187 296 
187 320 
187 325 
187 343 
187 366 
187 374 
187 399 
187 418 
187 419 
187 443 
187 458 
187 468 
187 497 
187 505 
187 524 
187 536 
188 280 
188 301 
188 309 
188 336 
188 350 
188 359 
188 383 
188 390 
188 403 
188 434 
188 442 
188 459 
188 481 
188 484 
188 508 
188 521 
188 536 
189 282 
189 299 
189 307 
189 338 
189 348 
189 361 
189 385 
189 388 
189 405 
189 432 
189 440 
189 461 
189 479 
189 486 
189 510 
189 519 
189 536 
190 290 
190 291 
190 315 
190 330 
190 340 
190 369 
190 377 
190 396 
190 413 
190 424 
190 448 
190 453 
190 471 
190 494 
190 502 
190 527 
190 536 
191 286 
191 295 
191 319 
191 326 
191 344 
191 365 
191 373 
191 400 
191 417 
191 420 
191 444 
191 457 
191 467 
191 498 
191 506 
191 523 
191 536 
192 284 
192 297 
192 321 
192 324 
192 346 
192 363 
192 371 
192 402 
192 415 
192 422 
192 446 
192 455 
192 469 
192 496 
192 504 
192 525 
192 536 
193 275 
193 300 
193 318 
193 325 
193 354 
193 361 
193 375 
193 400 
193 410 
193 433 
193 447 
193 456 
193 475 
193 484 
193 502 
193 525 
193 538 
194 283 
194 292 
194 310 
194 333 
194 346 
194 369 
194 383 
194 392 
194 418 
194 425 
194 439 
194 464 
194 467 
194 492 
194 510 
194 517 
194 538 
195 281 
195 306 
195 320 
195 327 
195 348 
195 355 
195 373 
195 398 
195 404 
195 427 
195 445 
195 454 
195 481 
195 490 
195 504 
195 527 
195 538 
196 289 
196 298 
196 312 
196 335 
196 340 
196 363 
196 381 
196 390 
196 412 
196 419 
196 437 
196 462 
196 473 
196 498 
196 512 
196 519 
196 538 
197 279 
197 304 
197 322 
197 329 
197 350 
197 357 
197 371 
197 396 
197 406 
197 429 
197 443 
197 452 
197 479 
197 488 
197 506 
197 529 
197 538 
198 277 
198 302 
198 316 
198 323 
198 352 
198 359 
198 377 
198 402 
198 408 
198 431 
198 449 
198 458 
198 477 
198 486 
198 500 
198 523 
198 538 
199 276 
199 299 
199 317 
199 326 
199 353 
199 362 
199 376 
199 399 
199 409 
199 434 
199 448 
199 455 
199 476 
199 483 
199 501 
199 526 
199 538 
200 287 
200 296 
200 314 
200 337 
200 342 
200 365 
200 379 
200 388 
200 414 
200 421 
200 435 
200 460 
200 471 
200 496 
200 514 
200 521 
200 538 
201 278 
201 301 
201 315 
201 324 
201 351 
201 360 
201 378 
201 401 
201 407 
201 432 
201 450 
201 457 
201 478 
201 485 
201 499 
201 524 
201 538 
202 288 
202 295 
202 313 
202 338 
202 341 
202 366 
202 380 
202 387 
202 413 
202 422 
202 436 
202 459 
202 472 
202 495 
202 513 
202 522 
202 538 
203 285 
203 294 
203 308 
203 331 
203 344 
203 367 
203 385 
203 394 
203 416 
203 423 
203 441 
203 466 
203 469 
203 494 
203 508 
203 515 
203 538 
204 280 
204 303 
204 321 
204 330 
204 349 
204 358 
204 372 
204 395 
204 405 
204 430 
204 444 
204 451 
204 480 
204 487 
204 505 
204 530 
204 538 
205 282 
205 305 
205 319 
205 328 
205 347 
205 356 
205 374 
205 397 
205 403 
205 428 
205 446 
205 453 
205 482 
205 489 
205 503 
205 528 
205 538 
206 290 
206 297 
206 311 
206 336 
206 339 
206 364 
206 382 
206 389 
206 411 
206 420 
206 438 
206 461 
206 474 
206 497 
206 511 
206 520 
206 538 
207 286 
207 293 
207 307 
207 332 
207 343 
207 368 
207 386 
207 393 
207 415 
207 424 
207 442 
207 465 
207 470 
207 493 
207 507 
207 516 
207 538 
208 284 
208 291 
208 309 
208 334 
208 345 
208 370 
208 384 
208 391 
208 417 
208 426 
208 440 
208 463 
208 468 
208 491 
208 509 
208 518 
208 538 
209 275 
209 299 
209 316 
209 324 
209 350 
209 358 
209 373 
209 397 
209 418 
209 426 
209 441 
209 465 
209 471 
209 495 
209 512 
209 520 
209 546 
210 283 
210 291 
210 308 
210 332 
210 342 
210 366 
210 381 
210 389 
210 410 
210 434 
210 449 
210 457 
210 479 
210 487 
210 504 
210 528 
210 546 
211 281 
211 305 
211 322 
211 330 
211 352 
211 360 
211 375 
211 399 
211 412 
211 420 
211 435 
211 459 
211 469 
211 493 
211 510 
211 518 
211 546 
212 289 
212 297 
212 314 
212 338 
212 344 
212 368 
212 383 
212 391 
212 404 
212 428 
212 443 
212 451 
212 477 
212 485 
212 502 
212 526 
212 546 
213 279 
213 303 
213 320 
213 328 
213 354 
213 362 
213 377 
213 401 
213 414 
213 422 
213 437 
213 461 
213 467 
213 491 
213 508 
213 516 
213 546 
214 277 
214 301 
214 318 
214 326 
214 348 
214 356 
214 371 
214 395 
214 416 
214 424 
214 439 
214 463 
214 473 
214 497 
214 514 
214 522 
214 546 
215 276 
215 300 
215 315 
215 323 
215 349 
215 357 
215 374 
215 398 
215 417 
215 425 
215 442 
215 466 
215 472 
215 496 
215 511 
215 519 
215 546 
216 287 
216 295 
216 312 
216 336 
216 346 
216 370 
216 385 
216 393 
216 406 
216 430 
216 445 
216 453 
216 475 
216 483 
216 500 
216 524 
216 546 
217 278 
217 302 
217 317 
217 325 
217 347 
217 355 
217 372 
217 396 
217 415 
217 423 
217 440 
217 464 
217 474 
217 498 
217 513 
217 521 
217 546 
218 288 
218 296 
218 311 
218 335 
218 345 
218 369 
218 386 
218 394 
218 405 
218 429 
218 446 
218 454 
218 476 
218 484 
218 499 
218 523 
218 546 
219 285 
219 293 
219 310 
219 334 
219 340 
219 364 
219 379 
219 387 
219 408 
219 432 
219 447 
219 455 
219 481 
219 489 
219 506 
219 530 
219 546 
220 280 
220 304 
220 319 
220 327 
220 353 
220 361 
220 378 
220 402 
220 413 
220 421 
220 438 
220 462 
220 468 
220 492 
220 507 
220 515 
220 546 
221 282 
221 306 
221 321 
221 329 
221 351 
221 359 
221 376 
221 400 
221 411 
221 419 
221 436 
221 460 
221 470 
221 494 
221 509 
221 517 
221 546 
222 290 
222 298 
222 313 
222 337 
222 343 
222 367 
222 384 
222 392 
222 403 
222 427 
222 444 
222 452 
222 478 
222 486 
222 501 
222 525 
222 546 
223 286 
223 294 
223 309 
223 333 
223 339 
223 363 
223 380 
223 388 
223 407 
223 431 
223 448 
223 456 
223 482 
223 490 
223 505 
223 529 
223 546 
224 284 
224 292 
224 307 
224 331 
224 341 
224 365 
224 382 
224 390 
224 409 
224 433 
224 450 
224 458 
224 480 
224 488 
224 503 
224 527 
224 546 
225 275 
225 295 
225 315 
225 335 
225 348 
225 368 
225 372 
225 392 
225 414 
225 434 
225 438 
225 458 
225 469 
225 489 
225 509 
225 529 
225 542 
226 283 
226 303 
226 307 
226 327 
226 340 
226 360 
226 380 
226 400 
226 406 
226 426 
226 446 
226 466 
226 477 
226 497 
226 501 
226 521 
226 542 
227 281 
227 293 
227 321 
227 333 
227 354 
227 366 
227 378 
227 390 
227 416 
227 428 
227 440 
227 452 
227 471 
227 483 
227 511 
227 523 
227 542 
228 289 
228 301 
228 313 
228 325 
228 346 
228 358 
228 386 
228 398 
228 408 
228 420 
228 448 
228 460 
228 479 
228 491 
228 503 
228 515 
228 542 
229 279 
229 291 
229 319 
229 331 
229 352 
229 364 
229 376 
229 388 
229 418 
229 430 
229 442 
229 454 
229 473 
229 485 
229 513 
229 525 
229 542 
230 277 
230 297 
230 317 
230 337 
230 350 
230 370 
230 374 
230 394 
230 412 
230 432 
230 436 
230 456 
230 467 
230 487 
230 507 
230 527 
230 542 
231 276 
231 296 
231 316 
231 336 
231 347 
231 367 
231 371 
231 391 
231 413 
231 433 
231 437 
231 457 
231 470 
231 490 
231 510 
231 530 
231 542 
232 287 
232 299 
232 311 
232 323 
232 344 
232 356 
232 384 
232 396 
232 410 
232 422 
232 450 
232 462 
232 481 
232 493 
232 505 
232 517 
232 542 
233 278 
233 298 
233 318 
233 338 
233 349 
233 369 
233 373 
233 393 
233 411 
233 431 
233 435 
233 455 
233 468 
233 488 
233 508 
233 528 
233 542 
234 288 
234 300 
234 312 
234 324 
234 343 
234 355 
234 383 
234 395 
234 409 
234 421 
234 449 
234 461 
234 482 
234 494 
234 506 
234 518 
234 542 
235 285 
235 305 
235 309 
235 329 
235 342 
235 362 
235 382 
235 402 
235 404 
235 424 
235 444 
235 464 
235 475 
235 495 
235 499 
235 519 
235 542 
236 280 
236 292 
236 320 
236 332 
236 351 
236 363 
236 375 
236 387 
236 417 
236 429 
236 441 
236 453 
236 474 
236 486 
236 514 
236 526 
236 542 
237 282 
237 294 
237 322 
237 334 
237 353 
237 365 
237 377 
237 389 
237 415 
237 427 
237 439 
237 451 
237 472 
237 484 
237 512 
237 524 
237 542 
238 290 
238 302 
238 314 
238 326 
238 345 
238 357 
238 385 
238 397 
238 407 
238 419 
238 447 
238 459 
238 480 
238 492 
238 504 
238 516 
238 542 
239 286 
239 306 
239 310 
239 330 
239 341 
239 361 
239 381 
239 401 
239 403 
239 423 
239 443 
239 463 
239 476 
239 496 
239 500 
239 520 
239 542 
240 284 
240 304 
240 308 
240 328 
240 339 
240 359 
240 379 
240 399 
240 405 
240 425 
240 445 
240 465 
240 478 
240 498 
240 502 
240 522 
240 542 
241 275 
241 293 
241 311 
241 329 
241 347 
241 365 
241 383 
241 401 
241 412 
241 430 
241 448 
241 466 
241 468 
241 486 
241 504 
241 522 
241 540 
242 283 
242 301 
242 319 
242 337 
242 339 
242 357 
242 375 
242 393 
242 404 
242 422 
242 440 
242 458 
242 476 
242 494 
242 512 
242 530 
242 540 
243 281 
243 295 
243 309 
243 323 
243 353 
243 367 
243 381 
243 395 
243 418 
243 432 
243 446 
243 460 
243 474 
243 488 
243 502 
243 516 
243 540 
244 289 
244 303 
244 317 
244 331 
244 345 
244 359 
244 373 
244 387 
244 410 
244 424 
244 438 
244 452 
244 482 
244 496 
244 510 
244 524 
244 540 
245 279 
245 297 
245 307 
245 325 
245 351 
245 369 
245 379 
245 397 
245 416 
245 434 
245 444 
245 462 
245 472 
245 490 
245 500 
245 518 
245 540 
246 277 
246 291 
246 313 
246 327 
246 349 
246 363 
246 385 
246 399 
246 414 
246 428 
246 450 
246 464 
246 470 
246 484 
246 506 
246 520 
246 540 
247 276 
247 294 
247 312 
247 330 
247 348 
247 366 
247 384 
247 402 
247 411 
247 429 
247 447 
247 465 
247 467 
247 485 
247 503 
247 521 
247 540 
248 287 
248 305 
248 315 
248 333 
248 343 
248 361 
248 371 
248 389 
248 408 
248 426 
248 436 
248 454 
248 480 
248 498 
248 508 
248 526 
248 540 
249 278 
249 292 
249 314 
249 328 
249 350 
249 364 
249 386 
249 400 
249 413 
249 427 
249 449 
249 463 
249 469 
249 483 
249 505 
249 519 
249 540 
250 288 
250 306 
250 316 
250 334 
250 344 
250 362 
250 372 
250 390 
250 407 
250 425 
250 435 
250 453 
250 479 
250 497 
250 507 
250 525 
250 540 
251 285 
251 299 
251 321 
251 335 
251 341 
251 355 
251 377 
251 391 
251 406 
251 420 
251 442 
251 456 
251 478 
251 492 
251 514 
251 528 
251 540 
252 280 
252 298 
252 308 
252 326 
252 352 
252 370 
252 380 
252 398 
252 415 
252 433 
252 443 
252 461 
252 471 
252 489 
252 499 
252 517 
252 540 
253 282 
253 296 
253 310 
253 324 
253 354 
253 368 
253 382 
253 396 
253 417 
253 431 
253 445 
253 459 
253 473 
253 487 
253 501 
253 515 
253 540 
254 290 
254 304 
254 318 
254 332 
254 346 
254 360 
254 374 
254 388 
254 409 
254 423 
254 437 
254 451 
254 481 
254 495 
254 509 
254 523 
254 540 
255 286 
255 300 
255 322 
255 336 
255 342 
255 356 
255 378 
255 392 
255 405 
255 419 
255 441 
255 455 
255 477 
255 491 
255 513 
255 527 
255 540 
256 284 
256 302 
256 320 
256 338 
256 340 
256 358 
256 376 
256 394 
256 403 
256 421 
256 439 
256 457 
256 475 
256 493 
256 511 
256 529 
256 540 
257 274 
257 275 
257 276 
257 277 
257 278 
257 279 
257 280 
257 281 
257 282 
257 283 
257 284 
257 285 
257 286 
257 287 
257 288 
257 289 
257 290 
258 274 
258 291 
258 292 
258 293 
258 294 
258 295 
258 296 
258 297 
258 298 
258 299 
258 300 
258 301 
258 302 
258 303 
258 304 
258 305 
258 306 
259 274 
259 307 
259 308 
259 309 
259 310 
259 311 
259 312 
259 313 
259 314 
259 315 
259 316 
259 317 
259 318 
259 319 
259 320 
259 321 
259 322 
260 274 
260 323 
260 324 
260 325 
260 326 
260 327 
260 328 
260 329 
260 330 
260 331 
260 332 
260 333 
260 334 
260 335 
260 336 
260 337 
260 338 
261 274 
261 339 
261 340 
261 341 
261 342 
261 343 
261 344 
261 345 
261 346 
261 347 
261 348 
261 349 
261 350 
261 351 
261 352 
261 353 
261 354 
262 274 
262 355 
262 356 
262 357 
262 358 
262 359 
262 360 
262 361 
262 362 
262 363 
262 364 
262 365 
262 366 
262 367 
262 368 
262 369 
262 370 
263 274 
263 371 
263 372 
263 373 
263 374 
263 375 
263 376 
263 377 
263 378 
263 379 
263 380 
263 381 
263 382 
263 383 
263 384 
263 385 
263 386 
264 274 
264 387 
264 388 
264 389 
264 390 
264 391 
264 392 
264 393 
264 394 
264 395 
264 396 
264 397 
264 398 
264 399 
264 400 
264 401 
264 402 
265 274 
265 403 
265 404 
265 405 
265 406 
265 407 
265 408 
265 409 
265 410 
265 411 
265 412 
265 413 
265 414 
265 415 
265 416 
265 417 
265 418 
266 274 
266 419 
266 420 
266 421 
266 422 
266 423 
266 424 
266 425 
266 426 
266 427 
266 428 
266 429 
266 430 
266 431 
266 432 
266 433 
266 434 
267 274 
267 435 
267 436 
267 437 
267 438 
267 439 
267 440 
267 441 
267 442 
267 443 
267 444 
267 445 
267 446 
267 447 
267 448 
267 449 
267 450 
268 274 
268 451 
268 452 
268 453 
268 454 
268 455 
268 456 
268 457 
268 458 
268 459 
268 460 
268 461 
268 462 
268 463 
268 464 
268 465 
268 466 
269 274 
269 467 
269 468 
269 469 
269 470 
269 471 
269 472 
269 473 
269 474 
269 475 
269 476 
269 477 
269 478 
269 479 
269 480 
269 481 
269 482 
270 274 
270 483 
270 484 
270 485 
270 486 
270 487 
270 488 
270 489 
270 490 
270 491 
270 492 
270 493 
270 494 
270 495 
270 496 
270 497 
270 498 
271 274 
271 499 
271 500 
271 501 
271 502 
271 503 
271 504 
271 505 
271 506 
271 507 
271 508 
271 509 
271 510 
271 511 
271 512 
271 513 
271 514 
272 274 
272 515 
272 516 
272 517 
272 518 
272 519 
272 520 
272 521 
272 522 
272 523 
272 524 
272 525 
272 526 
272 527 
272 528 
272 529 
272 530 
273 274 
273 531 
273 532 
273 533 
273 534 
273 535 
273 536 
273 537 
273 538 
273 539 
273 540 
273 541 
273 542 
273 543 
273 544 
273 545 
273 546 
